
Gurobi 6.0.0 (linux64) logging started Fri Mar 20 12:35:29 2015


Gurobi 6.0.0 (linux64) logging started Sun Mar 22 11:32:00 2015


Gurobi 6.0.0 (linux64) logging started Mon Mar 23 22:11:12 2015


Gurobi 6.0.0 (linux64) logging started Tue Mar 24 16:24:32 2015


Gurobi 6.0.0 (linux64) logging started Thu Mar 26 19:34:37 2015


Gurobi 6.0.0 (linux64) logging started Fri Mar 27 13:54:30 2015

Optimize a model with 36 rows, 9 columns and 84 nonzeros
Coefficient statistics:
  Matrix range    [2e-01, 1e+00]
  Objective range [1e+00, 1e+00]
  Bounds range    [0e+00, 0e+00]
  RHS range       [1e+00, 1e+03]
Presolve time: 0.04s

Solved in 0 iterations and 0.04 seconds
Infeasible or unbounded model
Optimize a model with 36 rows, 9 columns and 84 nonzeros
Coefficient statistics:
  Matrix range    [2e-01, 1e+00]
  Objective range [1e+00, 1e+00]
  Bounds range    [0e+00, 0e+00]
  RHS range       [1e+00, 1e+03]
Presolve time: 0.00s

Solved in 0 iterations and 0.00 seconds
Infeasible or unbounded model
Optimize a model with 36 rows, 9 columns and 84 nonzeros
Coefficient statistics:
  Matrix range    [2e-01, 1e+00]
  Objective range [1e+00, 1e+00]
  Bounds range    [0e+00, 0e+00]
  RHS range       [1e+00, 1e+03]
Presolve time: 0.00s

Solved in 0 iterations and 0.00 seconds
Infeasible or unbounded model
Optimize a model with 36 rows, 9 columns and 84 nonzeros
Coefficient statistics:
  Matrix range    [2e-01, 1e+00]
  Objective range [1e+00, 1e+00]
  Bounds range    [0e+00, 0e+00]
  RHS range       [1e+00, 1e+03]
Presolve time: 0.00s

Solved in 0 iterations and 0.00 seconds
Infeasible or unbounded model
Optimize a model with 36 rows, 9 columns and 84 nonzeros
Coefficient statistics:
  Matrix range    [2e-01, 1e+00]
  Objective range [1e+00, 1e+00]
  Bounds range    [0e+00, 0e+00]
  RHS range       [1e+00, 1e+03]
Presolve time: 0.00s

Solved in 0 iterations and 0.00 seconds
Infeasible or unbounded model
Optimize a model with 36 rows, 9 columns and 84 nonzeros
Coefficient statistics:
  Matrix range    [2e-01, 1e+00]
  Objective range [1e+00, 1e+00]
  Bounds range    [0e+00, 0e+00]
  RHS range       [1e+00, 1e+03]
Presolve time: 0.00s

Solved in 0 iterations and 0.00 seconds
Infeasible or unbounded model
Optimize a model with 36 rows, 9 columns and 84 nonzeros
Coefficient statistics:
  Matrix range    [2e-01, 1e+00]
  Objective range [1e+00, 1e+00]
  Bounds range    [0e+00, 0e+00]
  RHS range       [1e+00, 1e+03]
Presolve time: 0.00s

Solved in 0 iterations and 0.00 seconds
Infeasible or unbounded model
Optimize a model with 36 rows, 9 columns and 84 nonzeros
Coefficient statistics:
  Matrix range    [2e-01, 1e+00]
  Objective range [1e+00, 1e+00]
  Bounds range    [0e+00, 0e+00]
  RHS range       [1e+00, 1e+03]
Presolve time: 0.00s

Solved in 0 iterations and 0.00 seconds
Infeasible or unbounded model
Optimize a model with 36 rows, 9 columns and 84 nonzeros
Coefficient statistics:
  Matrix range    [2e-01, 1e+00]
  Objective range [1e+00, 1e+00]
  Bounds range    [0e+00, 0e+00]
  RHS range       [1e+00, 1e+03]
Presolve time: 0.00s

Solved in 0 iterations and 0.00 seconds
Infeasible or unbounded model
Optimize a model with 36 rows, 9 columns and 84 nonzeros
Coefficient statistics:
  Matrix range    [2e-01, 1e+00]
  Objective range [1e+00, 1e+00]
  Bounds range    [0e+00, 0e+00]
  RHS range       [1e+00, 1e+03]
Presolve time: 0.00s

Solved in 0 iterations and 0.00 seconds
Infeasible or unbounded model
Optimize a model with 36 rows, 9 columns and 84 nonzeros
Coefficient statistics:
  Matrix range    [2e-01, 1e+00]
  Objective range [1e+00, 1e+00]
  Bounds range    [0e+00, 0e+00]
  RHS range       [1e+00, 1e+03]
Presolve time: 0.00s

Solved in 0 iterations and 0.00 seconds
Infeasible model
Optimize a model with 36 rows, 9 columns and 84 nonzeros
Coefficient statistics:
  Matrix range    [2e-01, 1e+00]
  Objective range [1e+00, 1e+00]
  Bounds range    [0e+00, 0e+00]
  RHS range       [1e+00, 1e+03]
Presolve time: 0.00s

Solved in 0 iterations and 0.00 seconds
Infeasible or unbounded model
Optimize a model with 36 rows, 9 columns and 84 nonzeros
Coefficient statistics:
  Matrix range    [2e-01, 1e+00]
  Objective range [1e+00, 1e+00]
  Bounds range    [0e+00, 0e+00]
  RHS range       [1e+00, 1e+03]
Presolve removed 12 rows and 0 columns
Presolve time: 0.00s

Solved in 0 iterations and 0.00 seconds
Infeasible or unbounded model
